100
100
3000 3000 3000 3000 3000 3000 3000 3000 3000 3000 3000 3000 3000 3000 3000 3000 3000 3000 3000 3000 3000 3000 3000 3000 3000 3000 3000 3000 3000 3000 3000 3000 3000 3000 3000 3000 3000 3000 3000 3000 3000 3000 3000 3000 3000 3000 3000 3000 3000 3000 3000 3000 3000 3000 3000 3000 3000 3000 3000 3000 3000 3000 3000 3000 3000 3000 3000 3000 3000 3000 3000 3000 3000 3000 3000 3000 3000 3000 3000 3000 3000 3000 3000 3000 3000 3000 3000 3000 3000 3000 3000 3000 3000 3000 3000 3000 3000 3000 3000 3000
0 20 3
0 25 2
0 32 2
0 38 2
0 54 3
0 86 0
0 90 3
0 91 1
0 92 3
0 93 0
1 20 1
1 38 1
1 45 1
1 48 0
1 56 1
1 64 3
1 73 0
1 77 3
1 92 1
1 98 3
2 17 2
2 42 0
2 47 4
2 48 2
2 84 4
2 89 1
2 90 1
2 95 1
2 97 0
2 99 0
3 0 2
3 8 4
3 11 1
3 20 3
3 39 2
3 68 4
3 73 2
3 76 2
3 79 2
3 91 3
4 7 1
4 25 0
4 26 4
4 30 4
4 50 1
4 61 0
4 70 3
4 71 1
4 81 1
4 88 4
5 2 2
5 4 1
5 6 3
5 26 0
5 27 3
5 28 0
5 31 0
5 44 1
5 72 2
5 84 3
6 0 3
6 13 3
6 14 4
6 19 3
6 21 1
6 31 1
6 66 2
6 77 4
6 78 1
6 79 4
7 10 0
7 31 2
7 34 2
7 38 1
7 40 2
7 49 4
7 50 1
7 53 1
7 70 1
7 82 3
8 36 1
8 43 3
8 60 2
8 75 1
8 83 1
8 90 2
8 93 1
8 94 3
8 98 4
8 99 4
9 1 3
9 24 0
9 26 1
9 30 3
9 36 2
9 41 3
9 44 4
9 45 0
9 46 1
9 71 1
10 13 2
10 16 3
10 23 3
10 29 0
10 30 2
10 34 4
10 42 2
10 48 2
10 56 0
10 72 3
11 2 2
11 9 2
11 14 3
11 32 4
11 37 2
11 45 4
11 47 3
11 80 1
11 82 2
11 84 0
12 4 3
12 17 3
12 59 4
12 61 4
12 63 0
12 81 0
12 82 2
12 89 4
12 94 0
12 95 4
13 24 4
13 25 4
13 38 1
13 57 4
13 66 3
13 68 2
13 72 2
13 76 4
13 79 3
13 86 1
14 11 2
14 22 2
14 40 2
14 52 1
14 53 3
14 75 3
14 95 0
14 96 1
14 97 1
14 99 0
15 14 3
15 24 3
15 28 2
15 41 2
15 56 4
15 63 4
15 94 4
15 97 0
15 98 1
15 99 4
16 1 1
16 16 0
16 17 0
16 18 0
16 22 4
16 32 4
16 34 0
16 42 0
16 49 3
16 61 0
17 16 0
17 30 4
17 33 0
17 51 0
17 52 0
17 56 2
17 64 0
17 78 4
17 79 1
17 80 1
18 3 4
18 10 3
18 19 2
18 21 0
18 22 3
18 40 2
18 51 2
18 58 3
18 65 2
18 68 1
19 3 1
19 12 4
19 46 4
19 50 0
19 52 2
19 55 2
19 69 3
19 81 4
19 91 3
19 96 4
20 9 0
20 10 1
20 20 3
20 22 0
20 27 4
20 36 4
20 54 0
20 64 1
20 74 3
20 76 1
21 12 4
21 23 2
21 32 1
21 34 2
21 43 1
21 47 0
21 77 3
21 87 2
21 89 2
21 92 2
22 31 0
22 48 0
22 60 2
22 62 0
22 65 0
22 70 0
22 71 3
22 79 1
22 80 1
22 88 3
23 0 2
23 7 1
23 15 3
23 20 3
23 22 3
23 32 1
23 37 1
23 60 0
23 63 1
23 76 3
24 6 3
24 7 3
24 12 2
24 21 4
24 23 0
24 34 1
24 57 3
24 65 3
24 67 2
24 70 0
25 10 3
25 20 2
25 33 0
25 51 1
25 56 3
25 59 0
25 65 0
25 67 1
25 68 0
25 73 4
26 2 2
26 5 3
26 12 2
26 17 4
26 25 0
26 32 4
26 39 1
26 47 0
26 58 3
26 59 1
27 9 0
27 21 3
27 24 4
27 28 0
27 49 1
27 67 2
27 78 4
27 90 1
27 92 4
27 93 1
28 8 4
28 17 3
28 27 0
28 48 1
28 51 0
28 57 1
28 75 1
28 90 2
28 92 4
28 93 0
29 18 4
29 47 1
29 53 0
29 74 4
29 91 4
29 94 2
29 95 3
29 96 3
29 98 1
29 99 2
30 3 0
30 11 2
30 18 4
30 29 0
30 41 3
30 48 0
30 53 0
30 73 3
30 76 3
30 90 1
31 0 3
31 1 4
31 20 2
31 23 4
31 41 3
31 46 3
31 54 2
31 62 4
31 67 3
31 70 2
32 17 0
32 27 0
32 35 4
32 48 3
32 66 2
32 72 0
32 78 0
32 89 4
32 92 0
32 93 0
33 1 0
33 13 1
33 29 0
33 36 3
33 46 0
33 58 4
33 69 1
33 80 2
33 82 4
33 85 0
34 4 2
34 18 1
34 20 1
34 36 0
34 38 3
34 63 0
34 80 2
34 86 1
34 90 0
34 97 0
35 2 3
35 7 4
35 23 2
35 32 2
35 40 3
35 56 2
35 66 3
35 69 3
35 76 3
35 87 2
36 4 4
36 5 3
36 12 2
36 37 1
36 43 4
36 44 0
36 65 3
36 71 3
36 75 1
36 78 2
37 0 3
37 5 4
37 8 2
37 24 1
37 29 1
37 31 1
37 40 3
37 41 4
37 46 0
37 50 0
38 4 4
38 7 2
38 9 4
38 19 2
38 43 3
38 45 2
38 51 0
38 62 2
38 74 2
38 75 2
39 3 1
39 4 3
39 13 1
39 14 3
39 23 4
39 38 4
39 40 3
39 53 0
39 56 4
39 57 1
40 15 3
40 42 0
40 49 3
40 50 1
40 65 2
40 79 0
40 89 1
40 91 4
40 96 4
40 98 3
41 11 3
41 25 0
41 41 1
41 45 1
41 51 0
41 52 2
41 59 0
41 60 2
41 63 2
41 64 3
42 18 4
42 34 3
42 37 0
42 43 2
42 47 4
42 53 4
42 57 4
42 60 1
42 77 4
42 81 2
43 4 2
43 6 4
43 10 1
43 22 1
43 57 0
43 65 0
43 83 0
43 84 0
43 87 2
43 90 2
44 4 0
44 5 2
44 16 3
44 35 2
44 44 3
44 46 1
44 51 4
44 54 3
44 58 2
44 62 1
45 26 1
45 35 4
45 59 3
45 60 1
45 63 1
45 66 2
45 68 1
45 77 1
45 80 2
45 81 2
46 4 4
46 17 1
46 46 0
46 49 3
46 73 2
46 74 4
46 78 4
46 84 1
46 90 3
46 91 2
47 18 2
47 19 1
47 22 3
47 46 0
47 58 0
47 78 1
47 79 0
47 81 2
47 83 3
47 85 0
48 0 4
48 6 1
48 8 2
48 28 2
48 33 1
48 37 4
48 47 4
48 55 1
48 61 4
48 69 4
49 2 4
49 17 4
49 21 0
49 41 0
49 47 4
49 64 0
49 66 2
49 67 3
49 72 4
49 75 0
50 5 4
50 6 4
50 33 0
50 54 3
50 76 4
50 83 4
50 94 3
50 95 1
50 96 4
50 99 1
51 5 1
51 9 0
51 27 4
51 30 1
51 31 3
51 55 1
51 59 0
51 75 0
51 79 4
51 82 3
52 10 3
52 14 0
52 20 0
52 22 1
52 33 3
52 38 3
52 44 1
52 51 2
52 59 0
52 62 4
53 21 4
53 34 3
53 46 0
53 51 3
53 81 3
53 94 0
53 96 3
53 97 1
53 98 1
53 99 2
54 3 1
54 9 3
54 26 3
54 29 1
54 39 3
54 52 0
54 64 2
54 67 2
54 78 3
54 82 3
55 13 2
55 19 3
55 32 2
55 38 4
55 61 2
55 68 0
55 70 0
55 71 1
55 73 4
55 76 2
56 1 3
56 5 1
56 17 3
56 32 2
56 48 2
56 50 1
56 61 0
56 71 0
56 77 3
56 85 1
57 5 0
57 55 4
57 63 0
57 72 3
57 86 3
57 88 4
57 89 4
57 93 4
57 94 3
57 95 1
58 7 3
58 22 0
58 30 0
58 39 4
58 44 3
58 50 2
58 64 4
58 74 4
58 81 2
58 83 3
59 1 3
59 21 4
59 29 3
59 35 3
59 41 1
59 42 1
59 45 4
59 49 4
59 56 3
59 74 0
60 3 0
60 9 4
60 33 0
60 37 3
60 50 4
60 85 2
60 86 0
60 87 2
60 90 1
60 93 1
61 11 0
61 21 3
61 26 2
61 42 4
61 46 1
61 55 0
61 65 4
61 82 4
61 87 2
61 88 2
62 8 1
62 14 3
62 15 4
62 19 0
62 21 2
62 25 3
62 27 4
62 33 4
62 41 1
62 44 3
63 3 1
63 36 3
63 40 0
63 43 1
63 45 1
63 58 4
63 61 1
63 67 0
63 69 1
63 83 1
64 1 2
64 2 1
64 30 1
64 52 2
64 54 2
64 65 4
64 72 1
64 74 0
64 80 0
64 84 2
65 11 4
65 43 0
65 52 2
65 57 4
65 62 0
65 77 0
65 85 3
65 86 3
65 88 3
65 91 0
66 6 3
66 13 0
66 16 3
66 19 0
66 39 2
66 49 2
66 53 3
66 58 3
66 70 1
66 75 0
67 2 1
67 3 3
67 13 3
67 16 1
67 22 2
67 32 2
67 34 3
67 35 2
67 38 4
67 39 3
68 0 4
68 14 3
68 24 2
68 35 1
68 63 1
68 68 4
68 70 0
68 72 3
68 82 2
68 85 0
69 1 4
69 23 3
69 30 3
69 37 3
69 58 4
69 70 3
69 73 1
69 77 3
69 81 4
69 82 3
70 9 2
70 16 3
70 27 3
70 31 2
70 34 0
70 42 0
70 43 3
70 62 3
70 69 3
70 70 2
71 0 3
71 2 0
71 12 3
71 43 3
71 54 1
71 57 0
71 93 4
71 97 0
71 98 0
71 99 1
72 10 3
72 14 1
72 27 0
72 37 0
72 42 1
72 60 1
72 88 3
72 95 0
72 96 1
72 97 0
73 0 2
73 14 3
73 25 4
73 35 3
73 55 3
73 84 4
73 93 1
73 95 1
73 96 0
73 97 4
74 5 1
74 11 1
74 13 1
74 52 4
74 65 2
74 92 0
74 94 2
74 95 3
74 96 3
74 98 0
75 1 4
75 19 3
75 20 0
75 31 2
75 33 2
75 35 4
75 44 1
75 49 1
75 54 0
75 61 4
76 6 2
76 7 4
76 9 1
76 10 3
76 16 4
76 18 3
76 19 2
76 26 0
76 28 2
76 30 0
77 6 3
77 8 3
77 24 1
77 34 4
77 39 4
77 54 4
77 60 1
77 79 4
77 86 3
77 88 2
78 1 4
78 2 2
78 8 3
78 12 4
78 21 4
78 29 2
78 69 4
78 86 1
78 93 2
78 97 0
79 7 3
79 9 2
79 15 1
79 24 3
79 30 3
79 33 0
79 38 0
79 58 1
79 74 3
79 76 0
80 4 3
80 15 3
80 39 3
80 40 2
80 55 2
80 60 3
80 69 2
80 74 0
80 78 4
80 84 1
81 3 2
81 11 1
81 15 0
81 36 4
81 49 0
81 66 2
81 68 1
81 84 1
81 87 4
81 91 1
82 25 2
82 31 1
82 52 4
82 53 3
82 54 2
82 55 2
82 72 1
82 73 4
82 77 3
82 89 0
83 10 0
83 11 0
83 15 4
83 18 3
83 25 1
83 28 0
83 31 1
83 35 3
83 43 3
83 63 3
84 16 2
84 26 4
84 29 3
84 37 4
84 57 3
84 58 1
84 61 3
84 67 2
84 71 2
84 77 4
85 5 3
85 6 2
85 8 0
85 23 1
85 24 1
85 36 3
85 40 3
85 44 1
85 71 2
85 74 1
86 18 2
86 36 0
86 42 1
86 47 1
86 56 0
86 59 2
86 60 4
86 67 1
86 71 0
86 92 4
87 2 0
87 3 2
87 7 3
87 8 0
87 12 3
87 14 2
87 15 1
87 24 0
87 26 2
87 47 1
88 6 2
88 23 0
88 27 3
88 64 4
88 82 4
88 85 1
88 94 3
88 95 4
88 98 2
88 99 3
89 28 2
89 59 0
89 64 4
89 66 3
89 79 0
89 80 1
89 83 0
89 85 4
89 87 0
89 88 2
90 0 2
90 15 3
90 28 0
90 41 0
90 44 4
90 45 3
90 67 1
90 69 1
90 83 1
90 85 0
91 19 4
91 23 4
91 28 2
91 29 2
91 53 1
91 55 2
91 68 4
91 71 3
91 76 1
91 87 4
92 7 0
92 8 3
92 40 2
92 73 4
92 83 4
92 92 2
92 96 2
92 97 0
92 98 4
92 99 2
93 10 3
93 11 2
93 12 0
93 13 3
93 29 1
93 36 2
93 52 4
93 53 4
93 62 2
93 63 0
94 64 4
94 68 2
94 69 3
94 80 0
94 86 0
94 87 1
94 88 0
94 89 3
94 91 0
94 92 2
95 17 0
95 28 3
95 35 3
95 39 3
95 48 3
95 59 1
95 62 0
95 75 1
95 84 0
95 85 3
96 12 2
96 16 0
96 18 4
96 26 0
96 39 4
96 42 4
96 45 1
96 51 1
96 56 3
96 57 1
97 25 3
97 33 2
97 45 2
97 50 1
97 55 3
97 61 4
97 66 1
97 72 2
97 75 0
97 78 3
98 37 3
98 48 0
98 49 1
98 50 4
98 62 1
98 73 3
98 83 4
98 86 3
98 88 1
98 89 1
99 13 1
99 15 0
99 27 0
99 66 4
99 80 3
99 81 2
99 87 4
99 89 1
99 91 0
99 94 1
